36
191
93
47
235
31
92
37
26
16
67
66
24
42
157
13
59
170
196
24
0
102
284
192
214
0
32
13
329
95
31
114
22
131
255
0
135
17
146
107
0
189
31
111
18
196
106
218
78
412
75
29
69
91
12
296
142
367
150
465
17
324
316
106
101
29
320
17
106
32
32
123
362
16
42
82
17
28
48
66
177
33
220
25
204
101
65
79
70
252
161
278
146
38
102
0
52
112
26
106
